# ALL RUNTIME,INFILE,DATAFILE
# npt TEMPERATURE PRESSURE RANDOM
# -------------------- SPECIFY ANY VARIABLES WHICH MIGHT BE GIVEN FROM CMD LATER --------------------  

# -------------------- COMPUTE DIFF COEFF FOR CuNi AT A RANGE OF CONCENTRATIONS AND TEMPERATURES -------------------- 




# -------------------- INITIALIZING THE CONFIGURATION --------------------------

clear
units 			metal
dimension 		3
boundary 		p p p
atom_style 		atomic
#atom_modify 

# --------------------- CREATE ATOMS-----------------------
read_data		data.5

# ------------ DEFINE INTERATOMIC POTENTIAL ----------------

pair_style 		eam/alloy
pair_coeff 		* * CuNi.eam.alloy Ni Cu  
neighbor 		.05 bin
neigh_modify 		delay 10 check yes



thermo			100
thermo_style		custom step etotal vol temp press 
timestep		0.0005
variable		Dt equal 0.0005


# -------------------- SET UP COMPUTES AND FIX AVE/TIME -------------------- 
# AVERAGE AND STANDARD DEVIATION 


# -------------------- SET UP THERMO STYLES AND DUMPS -------------------- 

variable		dampT equal "v_Dt * v_kT"
variable 		dampP equal "v_Dt * v_kP"

variable 		kT equal 100
variable 		kP equal 10000


# Note: for npt ensemble, use nph to (Nose-Hoover) barostat and time step and Langevin for Thermostating
#	for nvt ensemble, use nve for time stepping, Langevin for thermostating, and deform for volume control

fix 			1 all nph iso 0.0 0.0 ${dampP} drag 2.0
fix			2 all langevin 300 300 ${dampT} 74827633 zero yes 

thermo			200
#thermo_style		custom step etotal v_varAveEnergy v_energySTD temp v_varAveTemp v_tempSTD vol v_varAveVolume v_volumeSTD press v_varAvePress v_pressSTD
thermo_style		custom step etotal temp press vol


log			log.drag5
dump			1 all xyz 2000 dump.xyz 


run 			100000

# Uncomment if in NPT
unfix 			1
fix			1 all nph iso 0.0 0.0 ${dampP} 

log			log.5
run 			100000
